 vasp.5.4.4.18Apr17-6-g9f103f2a35 (build Apr 24 2023 09:55:28) complex

 executed on             LinuxIFC date 2024.04.01  11:27:40

 INCAR:
 POTCAR:    PAW_PBE Li 17Jan2003
 POTCAR:    PAW_PBE Li 17Jan2003
   VRHFIN =Li: s1p0

   TITEL  = PAW_PBE Li 17Jan2003
   POMASS =    7.010; ZVAL   =    1.000    mass and valenz
   ENMAX  =  140.000; ENMIN  =  100.000 eV

  PAW_PBE Li 17Jan2003                  :

 POSCAR: Li2
  positions in direct lattice
 exchange correlation table for  LEXCH =        8
   RHO(1)=    0.500       N(1)  =     2000
   RHO(2)=  100.500       N(2)  =     4000

 ion  position               nearest neighbor table
   1  0.000  0.000  0.000-   2 2.98   2 2.98   2 2.98   2 2.98   2 2.98   2 2.98   2 2.98   2 2.98

   2  0.500  0.500  0.500-   1 2.98   1 2.98   1 2.98   1 2.98   1 2.98   1 2.98   1 2.98   1 2.98

  LATTYP: Found a simple cubic cell.
 ALAT       =     3.4393124532

  Lattice vectors:

 A1 = (   3.4393124532,   0.0000000000,   0.0000000000)
 A2 = (   0.0000000000,   3.4393124532,   0.0000000000)
 A3 = (   0.0000000000,   0.0000000000,   3.4393124532)

Analysis of symmetry for initial positions (statically):
 Subroutine PRICEL returns following result:

  LATTYP: Found a body centered cubic cell.
 ALAT       =     3.4393124532

[...]

   2 primitive cells build up your supercell.

 Routine SETGRP: Setting up the symmetry group for a
 simple cubic supercell.

 Subroutine GETGRP returns: Found 48 space group operations
 (whereof 48 operations were pure point group operations)
 out of a pool of 48 trial point group operations.

The static configuration has the point symmetry O_h .

Analysis of symmetry for dynamics (positions and initial velocities):
 Subroutine PRICEL returns following result:

  LATTYP: Found a body centered cubic cell.
 ALAT       =     3.4393124532

  Lattice vectors:

 A1 = (   1.7196562266,   1.7196562266,   1.7196562266)
 A2 = (   1.7196562266,  -1.7196562266,  -1.7196562266)
 A3 = (  -1.7196562266,   1.7196562266,  -1.7196562266)

   2 primitive cells build up your supercell.

 Routine SETGRP: Setting up the symmetry group for a
 simple cubic supercell.

 Subroutine GETGRP returns: Found 48 space group operations
 (whereof 48 operations were pure point group operations)
 out of a pool of 48 trial point group operations.

The dynamic configuration has the point symmetry O_h .

 Subroutine INISYM returns: Found 48 space group operations
 (whereof 48 operations are pure point group operations),
 and found     2 'primitive' translations

 KPOINTS: Automatic mesh

Automatic generation of k-mesh.
 generate k-points for:    9    9    9
Space group operators:
 irot       det(A)        alpha          n_x          n_y          n_z        tau_x        tau_y        tau_z
    1     1.000000     0.000000     1.000000     0.000000     0.000000     0.000000     0.000000     0.000000
    2    -1.000000     0.000000     1.000000     0.000000     0.000000     0.000000     0.000000     0.000000
    3     1.000000   120.000000    -0.577350    -0.577350    -0.577350     0.000000     0.000000     0.000000
    4    -1.000000   120.000000    -0.577350    -0.577350    -0.577350     0.000000     0.000000     0.000000
    5     1.000000   120.000000     0.577350     0.577350     0.577350     0.000000     0.000000     0.000000
    6    -1.000000   120.000000     0.577350     0.577350     0.577350     0.000000     0.000000     0.000000
    7     1.000000    90.000000     0.000000    -0.000000    -1.000000     0.000000     0.000000     0.000000
    8    -1.000000    90.000000     0.000000    -0.000000    -1.000000     0.000000     0.000000     0.000000
    9     1.000000   180.000000     0.000000    -0.707107    -0.707107     0.000000     0.000000     0.000000
   10    -1.000000   180.000000     0.000000    -0.707107    -0.707107     0.000000     0.000000     0.000000
   11     1.000000    90.000000     0.000000     1.000000     0.000000     0.000000     0.000000     0.000000
   12    -1.000000    90.000000     0.000000     1.000000     0.000000     0.000000     0.000000     0.000000
   13     1.000000   180.000000    -0.000000    -0.000000     1.000000     0.000000     0.000000     0.000000
   14    -1.000000   180.000000    -0.000000    -0.000000     1.000000     0.000000     0.000000     0.000000
   15     1.000000   120.000000    -0.577350     0.577350     0.577350     0.000000     0.000000     0.000000
   16    -1.000000   120.000000    -0.577350     0.577350     0.577350     0.000000     0.000000     0.000000
   17     1.000000   120.000000    -0.577350     0.577350    -0.577350     0.000000     0.000000     0.000000
   18    -1.000000   120.000000    -0.577350     0.577350    -0.577350     0.000000     0.000000     0.000000
   19     1.000000    90.000000    -0.000000    -0.000000     1.000000     0.000000     0.000000     0.000000
   20    -1.000000    90.000000    -0.000000    -0.000000     1.000000     0.000000     0.000000     0.000000
   21     1.000000    90.000000    -1.000000     0.000000    -0.000000     0.000000     0.000000     0.000000
   22    -1.000000    90.000000    -1.000000     0.000000    -0.000000     0.000000     0.000000     0.000000
   23     1.000000   180.000000    -0.707107     0.000000    -0.707107     0.000000     0.000000     0.000000
   24    -1.000000   180.000000    -0.707107     0.000000    -0.707107     0.000000     0.000000     0.000000
   25     1.000000   120.000000     0.577350    -0.577350     0.577350     0.000000     0.000000     0.000000
   26    -1.000000   120.000000     0.577350    -0.577350     0.577350     0.000000     0.000000     0.000000
   27     1.000000   120.000000    -0.577350    -0.577350     0.577350     0.000000     0.000000     0.000000
   28    -1.000000   120.000000    -0.577350    -0.577350     0.577350     0.000000     0.000000     0.000000
   29     1.000000   180.000000     1.000000    -0.000000     0.000000     0.000000     0.000000     0.000000
   30    -1.000000   180.000000     1.000000    -0.000000     0.000000     0.000000     0.000000     0.000000
   31     1.000000    90.000000    -0.000000    -1.000000     0.000000     0.000000     0.000000     0.000000
   32    -1.000000    90.000000    -0.000000    -1.000000     0.000000     0.000000     0.000000     0.000000
   33     1.000000   180.000000     0.707107     0.707107     0.000000     0.000000     0.000000     0.000000
   34    -1.000000   180.000000     0.707107     0.707107     0.000000     0.000000     0.000000     0.000000
   35     1.000000    90.000000     1.000000    -0.000000    -0.000000     0.000000     0.000000     0.000000
   36    -1.000000    90.000000     1.000000    -0.000000    -0.000000     0.000000     0.000000     0.000000
   37     1.000000   120.000000     0.577350    -0.577350    -0.577350     0.000000     0.000000     0.000000
   38    -1.000000   120.000000     0.577350    -0.577350    -0.577350     0.000000     0.000000     0.000000
   39     1.000000   180.000000     0.000000     1.000000     0.000000     0.000000     0.000000     0.000000
   40    -1.000000   180.000000     0.000000     1.000000     0.000000     0.000000     0.000000     0.000000
   41     1.000000   120.000000     0.577350     0.577350    -0.577350     0.000000     0.000000     0.000000
   42    -1.000000   120.000000     0.577350     0.577350    -0.577350     0.000000     0.000000     0.000000
   43     1.000000   180.000000    -0.000000    -0.707107     0.707107     0.000000     0.000000     0.000000
   44    -1.000000   180.000000    -0.000000    -0.707107     0.707107     0.000000     0.000000     0.000000
   45     1.000000   180.000000     0.707107    -0.707107     0.000000     0.000000     0.000000     0.000000
   46    -1.000000   180.000000     0.707107    -0.707107     0.000000     0.000000     0.000000     0.000000
   47     1.000000   180.000000     0.707107    -0.000000    -0.707107     0.000000     0.000000     0.000000
   48    -1.000000   180.000000     0.707107    -0.000000    -0.707107     0.000000     0.000000     0.000000

 Subroutine IBZKPT returns following result:

 Found     35 irreducible k-points:

 Following reciprocal coordinates:
            Coordinates               Weight
  0.000000  0.000000  0.000000      1.000000
  0.111111  0.000000  0.000000      6.000000
  0.222222  0.000000  0.000000      6.000000
  0.333333  0.000000  0.000000      6.000000
  0.444444  0.000000  0.000000      6.000000
  0.111111  0.111111  0.000000     12.000000
  0.222222  0.111111  0.000000     24.000000
  0.333333  0.111111  0.000000     24.000000
  0.444444  0.111111  0.000000     24.000000
  0.222222  0.222222  0.000000     12.000000
  0.333333  0.222222  0.000000     24.000000
  0.444444  0.222222  0.000000     24.000000
  0.333333  0.333333  0.000000     12.000000
  0.444444  0.333333  0.000000     24.000000
  0.444444  0.444444  0.000000     12.000000
  0.111111  0.111111  0.111111      8.000000
  0.222222  0.111111  0.111111     24.000000
  0.333333  0.111111  0.111111     24.000000
  0.444444  0.111111  0.111111     24.000000
  0.222222  0.222222  0.111111     24.000000
  0.333333  0.222222  0.111111     48.000000
  0.444444  0.222222  0.111111     48.000000
  0.333333  0.333333  0.111111     24.000000
  0.444444  0.333333  0.111111     48.000000
  0.444444  0.444444  0.111111     24.000000
  0.222222  0.222222  0.222222      8.000000
  0.333333  0.222222  0.222222     24.000000
  0.444444  0.222222  0.222222     24.000000
  0.333333  0.333333  0.222222     24.000000
  0.444444  0.333333  0.222222     48.000000
  0.444444  0.444444  0.222222     24.000000
  0.333333  0.333333  0.333333      8.000000
  0.444444  0.333333  0.333333     24.000000
  0.444444  0.444444  0.333333     24.000000
  0.444444  0.444444  0.444444      8.000000

 Following cartesian coordinates:
            Coordinates               Weight
  0.000000  0.000000  0.000000      1.000000
  0.032306 -0.000000  0.000000      6.000000
  0.064612 -0.000000  0.000000      6.000000
  0.096919 -0.000000  0.000000      6.000000
  0.129225 -0.000000  0.000000      6.000000
  0.032306  0.032306  0.000000     12.000000
  0.064612  0.032306  0.000000     24.000000
  0.096919  0.032306  0.000000     24.000000
  0.129225  0.032306  0.000000     24.000000
  0.064612  0.064612  0.000000     12.000000
  0.096919  0.064612  0.000000     24.000000
  0.129225  0.064612  0.000000     24.000000
  0.096919  0.096919  0.000000     12.000000
  0.129225  0.096919  0.000000     24.000000
  0.129225  0.129225  0.000000     12.000000
  0.032306  0.032306  0.032306      8.000000
  0.064612  0.032306  0.032306     24.000000
  0.096919  0.032306  0.032306     24.000000
  0.129225  0.032306  0.032306     24.000000
  0.064612  0.064612  0.032306     24.000000
  0.096919  0.064612  0.032306     48.000000
  0.129225  0.064612  0.032306     48.000000
  0.096919  0.096919  0.032306     24.000000
  0.129225  0.096919  0.032306     48.000000
  0.129225  0.129225  0.032306     24.000000
  0.064612  0.064612  0.064612      8.000000
  0.096919  0.064612  0.064612     24.000000
  0.129225  0.064612  0.064612     24.000000
  0.096919  0.096919  0.064612     24.000000
[...]
   LDIPOL =      F    correct potential (dipole corrections)
   IDIPOL =      0    1-x, 2-y, 3-z, 4-all directions
   EPSILON=  1.0000000 bulk dielectric constant

 Exchange correlation treatment:
   GGA     =    --    GGA type
   VOSKOWN=      0    Vosko Wilk Nusair interpolation
   LHFCALC =     F    Hartree Fock is set to
   LHFONE  =     F    Hartree Fock one center treatment
   AEXX    =    0.0000 exact exchange contribution

 Linear response parameters
   LEPSILON=     F    determine dielectric tensor
   LRPA    =     F    only Hartree local field effects (RPA)
   LNABLA  =     F    use nabla operator in PAW spheres
   LVEL    =     F    velocity operator in full k-point grid
   LINTERFAST=   F  fast interpolation
   KINTER  =     0    interpolate to denser k-point grid
   CSHIFT  =0.1000    complex shift for real part using Kramers Kronig
   OMEGAMAX=  -1.0    maximum frequency
   DEG_THRESHOLD= 0.2000000E-02 threshold for treating states as degnerate
   RTIME   =   -0.100 relaxation time in fs
  (WPLASMAI=    0.000 imaginary part of plasma frequency in eV, 0.658/RTIME)
   DFIELD  = 0.0000000 0.0000000 0.0000000 field for delta impulse in time

 Orbital magnetization related:
   ORBITALMAG=     F  switch on orbital magnetization
   LCHIMAG   =     F  perturbation theory with respect to B field
   DQ        =  0.001000  dq finite difference perturbation B field
   LLRAUG    =     F  two centre corrections for induced B field

 quasi-Newton-method for relaxation of ions
 charge density and potential will be updated during run
 non-spin polarized calculation
 Variant of blocked Davidson
 Davidson routine will perform the subspace rotation
 perform sub-space diagonalisation
    after iterative eigenvector-optimisation
 modified Broyden-mixing scheme, WC =      100.0
 initial mixing is a Kerker type mixing with AMIX =  0.4000 and BMIX =      1.0000
 Hartree-type preconditioning will be used
 using additional bands            4
 reciprocal scheme for non local part
 use partial core corrections
 calculate Harris-corrections to forces
   (improved forces if not selfconsistent)
 use gradient corrections
 use of overlap-Matrix (Vanderbilt PP)
 Gauss-broadening in eV      SIGMA  =   0.01

  energy-cutoff  :      400.00
  volume of cell :       40.68
      direct lattice vectors                 reciprocal lattice vectors
     3.439312453  0.000000000  0.000000000     0.290755787 -0.000000000  0.000000000
     0.000000000  3.439312453  0.000000000     0.000000000  0.290755787  0.000000000
     0.000000000  0.000000000  3.439312453    -0.000000000 -0.000000000  0.290755787

  length of vectors
     3.439312453  3.439312453  3.439312453     0.290755787  0.290755787  0.290755787

 k-points in units of 2pi/SCALE and weight: Automatic mesh
   0.00000000  0.00000000  0.00000000       0.001
   0.03230620 -0.00000000  0.00000000       0.008
   0.06461240 -0.00000000  0.00000000       0.008
   0.09691860 -0.00000000  0.00000000       0.008
   0.12922479 -0.00000000  0.00000000       0.008
   0.03230620  0.03230620  0.00000000       0.016
   0.06461240  0.03230620  0.00000000       0.033
   0.09691860  0.03230620  0.00000000       0.033
   0.12922479  0.03230620  0.00000000       0.033
   0.06461240  0.06461240  0.00000000       0.016
   0.09691860  0.06461240  0.00000000       0.033
   0.12922479  0.06461240  0.00000000       0.033
   0.09691860  0.09691860  0.00000000       0.016
   0.12922479  0.09691860  0.00000000       0.033
   0.12922479  0.12922479  0.00000000       0.016
   0.03230620  0.03230620  0.03230620       0.011
   0.06461240  0.03230620  0.03230620       0.033
   0.09691860  0.03230620  0.03230620       0.033
   0.12922479  0.03230620  0.03230620       0.033
   0.06461240  0.06461240  0.03230620       0.033
   0.09691860  0.06461240  0.03230620       0.066
   0.12922479  0.06461240  0.03230620       0.066
   0.09691860  0.09691860  0.03230620       0.033
   0.12922479  0.09691860  0.03230620       0.066
   0.12922479  0.12922479  0.03230620       0.033
   0.06461240  0.06461240  0.06461240       0.011
   0.09691860  0.06461240  0.06461240       0.033
   0.12922479  0.06461240  0.06461240       0.033
   0.09691860  0.09691860  0.06461240       0.033
   0.12922479  0.09691860  0.06461240       0.066
   0.12922479  0.12922479  0.06461240       0.033
   0.09691860  0.09691860  0.09691860       0.011
   0.12922479  0.09691860  0.09691860       0.033
   0.12922479  0.12922479  0.09691860       0.033
   0.12922479  0.12922479  0.12922479       0.011

 k-points in reciprocal lattice and weights: Automatic mesh
   0.00000000  0.00000000  0.00000000       0.001
   0.11111111  0.00000000  0.00000000       0.008
   0.22222222  0.00000000  0.00000000       0.008
   0.33333333  0.00000000  0.00000000       0.008
   0.44444444  0.00000000  0.00000000       0.008
   0.11111111  0.11111111  0.00000000       0.016
   0.22222222  0.11111111  0.00000000       0.033
   0.33333333  0.11111111  0.00000000       0.033
   0.44444444  0.11111111  0.00000000       0.033
   0.22222222  0.22222222  0.00000000       0.016
   0.33333333  0.22222222  0.00000000       0.033
   0.44444444  0.22222222  0.00000000       0.033
   0.33333333  0.33333333  0.00000000       0.016
   0.44444444  0.33333333  0.00000000       0.033
   0.44444444  0.44444444  0.00000000       0.016
   0.11111111  0.11111111  0.11111111       0.011
   0.22222222  0.11111111  0.11111111       0.033
   0.33333333  0.11111111  0.11111111       0.033
   0.44444444  0.11111111  0.11111111       0.033
   0.22222222  0.22222222  0.11111111       0.033
   0.33333333  0.22222222  0.11111111       0.066
   0.44444444  0.22222222  0.11111111       0.066
   0.33333333  0.33333333  0.11111111       0.033
   0.44444444  0.33333333  0.11111111       0.066
   0.44444444  0.44444444  0.11111111       0.033
   0.22222222  0.22222222  0.22222222       0.011
   0.33333333  0.22222222  0.22222222       0.033
   0.44444444  0.22222222  0.22222222       0.033
   0.33333333  0.33333333  0.22222222       0.033
   0.44444444  0.33333333  0.22222222       0.066
   0.44444444  0.44444444  0.22222222       0.033
   0.33333333  0.33333333  0.33333333       0.011
   0.44444444  0.33333333  0.33333333       0.033
   0.44444444  0.44444444  0.33333333       0.033
   0.44444444  0.44444444  0.44444444       0.011

 position of ions in fractional coordinates (direct lattice)
   0.00000000  0.00000000  0.00000000
   0.50000000  0.50000000  0.50000000

 position of ions in cartesian coordinates  (Angst):
   0.00000000  0.00000000  0.00000000
   1.71965623  1.71965623  1.71965623

 k-point  1 :   0.0000 0.0000 0.0000  plane waves:     739
 k-point  2 :   0.1111 0.0000 0.0000  plane waves:     743
 k-point  3 :   0.2222 0.0000 0.0000  plane waves:     747
 k-point  4 :   0.3333 0.0000 0.0000  plane waves:     743
 k-point  5 :   0.4444 0.0000 0.0000  plane waves:     740
 k-point  6 :   0.1111 0.1111 0.0000  plane waves:     742
 k-point  7 :   0.2222 0.1111 0.0000  plane waves:     741
 k-point  8 :   0.3333 0.1111 0.0000  plane waves:     747
 k-point  9 :   0.4444 0.1111 0.0000  plane waves:     746
 k-point 10 :   0.2222 0.2222 0.0000  plane waves:     742
 k-point 11 :   0.3333 0.2222 0.0000  plane waves:     742
 k-point 12 :   0.4444 0.2222 0.0000  plane waves:     738
 k-point 13 :   0.3333 0.3333 0.0000  plane waves:     748
 k-point 14 :   0.4444 0.3333 0.0000  plane waves:     736
 k-point 15 :   0.4444 0.4444 0.0000  plane waves:     744
 k-point 16 :   0.1111 0.1111 0.1111  plane waves:     742
 k-point 17 :   0.2222 0.1111 0.1111  plane waves:     737
 k-point 18 :   0.3333 0.1111 0.1111  plane waves:     736
 k-point 19 :   0.4444 0.1111 0.1111  plane waves:     746
 k-point 20 :   0.2222 0.2222 0.1111  plane waves:     738
 k-point 21 :   0.3333 0.2222 0.1111  plane waves:     740
 k-point 22 :   0.4444 0.2222 0.1111  plane waves:     745
 k-point 23 :   0.3333 0.3333 0.1111  plane waves:     742
 k-point 24 :   0.4444 0.3333 0.1111  plane waves:     742
 k-point 25 :   0.4444 0.4444 0.1111  plane waves:     736
 k-point 26 :   0.2222 0.2222 0.2222  plane waves:     742
 k-point 27 :   0.3333 0.2222 0.2222  plane waves:     742
 k-point 28 :   0.4444 0.2222 0.2222  plane waves:     743
 k-point 29 :   0.3333 0.3333 0.2222  plane waves:     736
 k-point 30 :   0.4444 0.3333 0.2222  plane waves:     732
 k-point 31 :   0.4444 0.4444 0.2222  plane waves:     736
 k-point 32 :   0.3333 0.3333 0.3333  plane waves:     729
 k-point 33 :   0.4444 0.3333 0.3333  plane waves:     734
 k-point 34 :   0.4444 0.4444 0.3333  plane waves:     724
 k-point 35 :   0.4444 0.4444 0.4444  plane waves:     714

 maximum and minimum number of plane-waves per node :       124       90

 maximum number of plane-waves:       748
 maximum index in each direction:
   IXMAX=    5   IYMAX=    5   IZMAX=    5
   IXMIN=   -6   IYMIN=   -6   IZMIN=   -6

 parallel 3D FFT for wavefunctions:
    minimum data exchange during FFTs selected (reduces bandwidth)
 parallel 3D FFT for charge:
    minimum data exchange during FFTs selected (reduces bandwidth)

 Broyden mixing: mesh for mixing (old mesh)
   NGX = 11   NGY = 11   NGZ = 11
  (NGX  = 48   NGY  = 48   NGZ  = 48)
  gives a total of   1331 points

 initial charge density was supplied:
 charge density of overlapping atoms calculated
 number of electron       2.0000000 magnetization
 keeping initial charge density in first step

 Maximum index for augmentation-charges          642 (set IRDMAX)

 First call to EWALD:  gamma=   0.515
 Maximum number of real-space cells 3x 3x 3
 Maximum number of reciprocal cells 3x 3x 3

--------------------------------------- Iteration      1(   1)  ---------------------------------------

 eigenvalue-minimisations  :   370
 total energy-change (2. order) :-0.3190519E+01  (-0.5010368E+02)
 number of electron       2.0000000 magnetization
 augmentation part        2.0000000 magnetization

 Free energy of the ion-electron system (eV)
  alpha Z        PSCENC =         0.25757056
  Ewald energy   TEWEN  =       -15.23682077
  -Hartree energ DENC   =        -0.00902319
  -exchange      EXHF   =         0.00000000
  -V(xc)+E(xc)   XCENC  =        -8.55173435
  PAW double counting   =        15.32523118       -4.20845459
  entropy T*S    EENTRO =        -0.00007148
  eigenvalues    EBANDS =        -1.36739402
  atomic energy  EATOM  =        10.60017774
  Solvation  Ediel_sol  =         0.00000000
  free energy    TOTEN  =        -3.19051891 eV

  energy without entropy =       -3.19044744  energy(sigma->0) =       -3.19048317

[...]

 eigenvalue-minimisations  :   470
 total energy-change (2. order) :-0.2210102E-06  (-0.2210045E-06)
 number of electron       2.0000000 magnetization
 augmentation part        0.0153303 magnetization

 Broyden mixing:
  rms(total) = 0.19222E-01    rms(broyden)= 0.19222E-01
  rms(prec ) = 0.59363E-01
  weight for this iteration     100.00

[...]

 eigenvalue-minimisations  :   410
 total energy-change (2. order) : 0.1965449E-02  (-0.9630713E-05)
 number of electron       2.0000000 magnetization
 augmentation part        0.0153913 magnetization

[...]

 eigenvalues of (default mixing * dielectric matrix)
  average eigenvalue GAMMA=   2.8899
  2.8899

[...]

 Broyden mixing:
  rms(total) = 0.22561E-03    rms(broyden)= 0.22561E-03
  rms(prec ) = 0.24067E-03
  weight for this iteration     100.00

 eigenvalues of (default mixing * dielectric matrix)
  average eigenvalue GAMMA=   2.0982
  0.9350  2.8619  2.4976

[...]

--------------------------------------- Iteration      1(   9)  ---------------------------------------

 eigenvalue-minimisations  :   195
 total energy-change (2. order) : 0.7213315E-05  (-0.7139883E-07)
 number of electron       2.0000000 magnetization
 augmentation part        0.0154752 magnetization

 Free energy of the ion-electron system (eV)
  alpha Z        PSCENC =         0.25757056
  Ewald energy   TEWEN  =       -15.23682077
  -Hartree energ DENC   =        -0.02577589
  -exchange      EXHF   =         0.00000000
  -V(xc)+E(xc)   XCENC  =        -8.50236315
  PAW double counting   =        18.50565848       -7.40401979
  entropy T*S    EENTRO =        -0.00036946
  eigenvalues    EBANDS =        -1.98978640
  atomic energy  EATOM  =        10.60017774
  Solvation  Ediel_sol  =         0.00000000
  free energy    TOTEN  =        -3.79572868 eV

  energy without entropy =       -3.79535922  energy(sigma->0) =       -3.79554395

 average (electrostatic) potential at core
  the test charge radii are     0.9748
  (the norm of the test charge is              1.0000)
       1 -30.5695       2 -30.5695

 E-fermi :   0.3304     XC(G=0):  -6.7620     alpha+bet : -7.2201

 k-point     1 :       0.0000    0.0000    0.0000
  band No.  band energies     occupation
      1      -3.1809      2.00000
      2       5.9028      0.00000
      3       5.9028      0.00000
      4       5.9028      0.00000
      5       8.1472      0.00000

[...]

 k-point    35 :       0.4444    0.4444    0.4444
  band No.  band energies     occupation
      1       2.3944      0.00000
      2       3.1891      0.00000
      3       3.1891      0.00000
      4       4.5750      0.00000
      5       4.5750      0.00000

 soft charge-density along one line, spin component           1
         0         1         2         3         4         5         6         7         8         9
 total charge-density along one line

------------------------ aborting loop because EDIFF is reached ----------------------------------------

 total charge

# of ion       s       p       d       tot
    1        0.116   0.099   0.000   0.215
    2        0.116   0.099   0.000   0.215
tot          0.232   0.198   0.000   0.430

  FORCE on cell =-STRESS in cart. coord.  units (eV):
  Direction    XX          YY          ZZ          XY          YZ          ZX
  Alpha Z     0.25757     0.25757     0.25757
  Ewald      -5.07894    -5.07894    -5.07894    -0.00000    -0.00000    -0.00000
  Hartree     0.00859     0.00859     0.00859    -0.00000    -0.00000    -0.00000
  E(xc)      -3.50464    -3.50464    -3.50464    -0.00000     0.00000     0.00000
  Local       0.27458     0.27458     0.27458     0.00000     0.00000     0.00000
  n-local     2.64279     3.15541     3.28666    -0.22390    -0.11797    -0.12086
  augment     0.12889     0.12889     0.12889     0.00000     0.00000     0.00000
  Kinetic     8.98058     4.00238     1.70110     3.13547     1.00468     1.30922
  Fock        0.00000     0.00000     0.00000     0.00000     0.00000     0.00000
  Total       0.00903     0.00903     0.00903    -0.00000    -0.00000    -0.00000
  in kB       0.35563     0.35563     0.35563    -0.00000    -0.00000    -0.00000

 VOLUME and BASIS-vectors are now :
  energy-cutoff  :      400.00
  volume of cell :       40.68
      direct lattice vectors                 reciprocal lattice vectors
     3.439312453  0.000000000  0.000000000     0.290755787 -0.000000000  0.000000000
     0.000000000  3.439312453  0.000000000     0.000000000  0.290755787  0.000000000
     0.000000000  0.000000000  3.439312453    -0.000000000 -0.000000000  0.290755787

  length of vectors
     3.439312453  3.439312453  3.439312453     0.290755787  0.290755787  0.290755787

 FORCES acting on ions
    electron-ion (+dipol)            ewald-force                    non-local-force                 convergence-correction
   0.111E-15 0.205E-15 0.176E-15   -.119E-16 -.137E-16 -.127E-16   0.355E-24 0.620E-24 -.124E-23   -.373E-17 -.769E-18 -.232E-18
   0.206E-15 -.221E-15 0.349E-14   0.255E-16 0.227E-16 0.227E-16   -.145E-23 0.000E+00 -.207E-24   -.785E-18 -.115E-17 0.267E-18
   0.317E-15 -.166E-16 0.366E-14   0.137E-16 0.900E-17 0.100E-16   -.110E-23 0.620E-24 -.145E-23   -.452E-17 -.192E-17 0.351E-19

 POSITION                                       TOTAL-FORCE (eV/Angst)
      0.00000      0.00000      0.00000         0.000000      0.000000      0.000000
      1.71966      1.71966      1.71966        -0.000000     -0.000000     -0.000000
    total drift:                                0.000000     -0.000000      0.000000

  FREE ENERGIE OF THE ION-ELECTRON SYSTEM (eV)
  free  energy   TOTEN  =        -3.79572868 eV

  energy  without entropy=       -3.79535922  energy(sigma->0) =       -3.79554395

 Quasi-Newton relaxation of ions (Broydens 2nd method)
  g(Force)  = 0.339E-67   g(Stress)= 0.118E-05

 Reset! Starting new Quasi-Newton update for ions

 reached required accuracy - stopping structural energy minimisation

 total charge

# of ion       s       p       d       tot
    1        0.116   0.099   0.000   0.215
    2        0.116   0.099   0.000   0.215
tot          0.232   0.198   0.000   0.430