 vasp.5.4.4.18Apr17-6-g9f103f2a35 (build Apr 24 2023 09:55:28) complex

 executed on             LinuxIFC date 2024.04.04  10:38:54

 INCAR:
 POTCAR:    PAW_PBE Ca_sv 06Sep2000
 POTCAR:    PAW_PBE Fe 06Sep2000
 POTCAR:    PAW_PBE B 06Sep2000
 POTCAR:    PAW_PBE Ca_sv 06Sep2000
   VRHFIN =Ca: 3s3p4s

   TITEL  = PAW_PBE Ca_sv 06Sep2000
   POMASS =   40.078; ZVAL   =   10.000    mass and valenz
   ENMAX  =  266.622; ENMIN  =  199.967 eV

 POTCAR:    PAW_PBE Fe 06Sep2000
   VRHFIN =Fe:  d7 s1

   TITEL  = PAW_PBE Fe 06Sep2000
   POMASS =   55.847; ZVAL   =    8.000    mass and valenz
   ENMAX  =  267.882; ENMIN  =  200.911 eV

 POTCAR:    PAW_PBE B 06Sep2000
   VRHFIN =B: s2p1

   TITEL  = PAW_PBE B 06Sep2000
   POMASS =   10.811; ZVAL   =    3.000    mass and valenz
   ENMAX  =  318.614; ENMIN  =  238.960 eV

  PAW_PBE Ca_sv 06Sep2000               :
  PAW_PBE Fe 06Sep2000                  :
  PAW_PBE B 06Sep2000                   :

 POSCAR: Ca4 Fe4 B4
  positions in direct lattice
 exchange correlation table for  LEXCH =        8
   RHO(1)=    0.500       N(1)  =     2000
   RHO(2)=  100.500       N(2)  =     4000

 ion  position               nearest neighbor table
   1  0.997  0.001  0.750-   9 2.45  12 2.48   9 2.55  12 2.56   7 3.10   6 3.10   8 3.10   5 3.10
                             7 3.10   6 3.10   5 3.12   8 3.12
   2  0.003  0.999  0.250-  10 2.45  11 2.48  10 2.55  11 2.56   8 3.10   5 3.10   6 3.10   7 3.10
                             5 3.10   8 3.10   7 3.12   6 3.12
   3  0.997  0.499  0.250-  11 2.45  10 2.48  11 2.55  10 2.56   7 3.10   6 3.10   8 3.10   5 3.10
                             7 3.10   6 3.10   5 3.12   8 3.12
   4  0.003  0.501  0.750-  12 2.45   9 2.48  12 2.55   9 2.56   8 3.10   5 3.10   6 3.10   7 3.10
                             5 3.10   8 3.10   7 3.12   6 3.12
   5  0.504  0.750  0.500-   9 1.82  11 1.82   2 3.10   4 3.10   3 3.10   1 3.10   2 3.10   4 3.10
                             3 3.12   1 3.12
   6  0.496  0.250  0.500-  10 1.82  12 1.82   1 3.10   3 3.10   2 3.10   4 3.10   1 3.10   3 3.10
                             2 3.12   4 3.12
   7  0.496  0.250  0.000-  10 1.82  12 1.82   1 3.10   3 3.10   2 3.10   4 3.10   1 3.10   3 3.10
                             2 3.12   4 3.12
   8  0.504  0.750  0.000-   9 1.82  11 1.82   2 3.10   4 3.10   3 3.10   1 3.10   2 3.10   4 3.10
                             3 3.12   1 3.12
   9  0.519  0.753  0.750-   5 1.82   8 1.82   1 2.45   4 2.48   1 2.55   4 2.56
  10  0.481  0.247  0.250-   6 1.82   7 1.82   2 2.45   3 2.48   2 2.55   3 2.56
  11  0.519  0.747  0.250-   5 1.82   8 1.82   3 2.45   2 2.48   3 2.55   2 2.56
  12  0.481  0.253  0.750-   6 1.82   7 1.82   4 2.45   1 2.48   4 2.55   1 2.56

  LATTYP: Found a simple orthorhombic cell.
 ALAT       =     3.4160100000
 B/A-ratio  =     2.1322595660
 C/A-ratio  =     2.1564895887

  Lattice vectors:

 A1 = (  -3.4160100000,   0.0000000000,   0.0000000000)
 A2 = (   0.0000000000,   0.0000000000,  -7.2838200000)
 A3 = (   0.0000000000,  -7.3665900000,   0.0000000000)

Analysis of symmetry for initial positions (statically):
 Subroutine PRICEL returns:
 Original cell was already a primitive cell.

 Routine SETGRP: Setting up the symmetry group for a
 simple orthorhombic supercell.

 Subroutine GETGRP returns: Found  8 space group operations
 (whereof  2 operations were pure point group operations)
 out of a pool of  8 trial point group operations.

The static configuration has the point symmetry S_2 .
 The point group associated with its full space group is D_2h.

Analysis of symmetry for dynamics (positions and initial velocities):
 Subroutine PRICEL returns:
 Original cell was already a primitive cell.

 Routine SETGRP: Setting up the symmetry group for a
 simple orthorhombic supercell.

 Subroutine GETGRP returns: Found  8 space group operations
 (whereof  2 operations were pure point group operations)
 out of a pool of  8 trial point group operations.

The dynamic configuration has the point symmetry S_2 .
 The point group associated with its full space group is D_2h.

 Subroutine INISYM returns: Found  8 space group operations
 (whereof  2 operations are pure point group operations),
 and found     1 'primitive' translations

 KPOINTS: Automatic mesh

Automatic generation of k-mesh.
 generate k-points for:    9    4    4
Space group operators:
 irot       det(A)        alpha          n_x          n_y          n_z        tau_x        tau_y        tau_z
    1     1.000000     0.000000     1.000000     0.000000     0.000000     0.000000     0.000000     0.000000
    2    -1.000000     0.000000     1.000000     0.000000     0.000000     0.000000     0.000000     0.000000
    3     1.000000   180.000000     0.000000     1.000000     0.000000     0.000000    -0.500000    -0.500000
    4    -1.000000   180.000000     0.000000     1.000000     0.000000     0.000000    -0.500000    -0.500000
    5     1.000000   180.000000     0.000000     0.000000     1.000000     0.000000     0.000000    -0.500000
    6    -1.000000   180.000000     0.000000     0.000000     1.000000     0.000000     0.000000    -0.500000
    7     1.000000   180.000000     1.000000     0.000000     0.000000     0.000000    -0.500000     0.000000
    8    -1.000000   180.000000     1.000000     0.000000     0.000000     0.000000    -0.500000     0.000000

 Subroutine IBZKPT returns following result:

 Found     45 irreducible k-points:

 Following reciprocal coordinates:
            Coordinates               Weight
  0.000000  0.000000  0.000000      1.000000
  0.111111  0.000000  0.000000      2.000000
  0.222222  0.000000  0.000000      2.000000
  0.333333  0.000000  0.000000      2.000000
  0.444444  0.000000  0.000000      2.000000
  0.000000  0.250000  0.000000      2.000000
  0.111111  0.250000  0.000000      4.000000
  0.222222  0.250000  0.000000      4.000000
  0.333333  0.250000  0.000000      4.000000
  0.444444  0.250000  0.000000      4.000000
  0.000000  0.500000  0.000000      1.000000
  0.111111  0.500000  0.000000      2.000000
  0.222222  0.500000  0.000000      2.000000
  0.333333  0.500000  0.000000      2.000000
  0.444444  0.500000  0.000000      2.000000
  0.000000  0.000000  0.250000      2.000000
  0.111111  0.000000  0.250000      4.000000
  0.222222  0.000000  0.250000      4.000000
  0.333333  0.000000  0.250000      4.000000
  0.444444  0.000000  0.250000      4.000000
  0.000000  0.250000  0.250000      4.000000
  0.111111  0.250000  0.250000      8.000000
  0.222222  0.250000  0.250000      8.000000
  0.333333  0.250000  0.250000      8.000000
  0.444444  0.250000  0.250000      8.000000
  0.000000  0.500000  0.250000      2.000000
  0.111111  0.500000  0.250000      4.000000
  0.222222  0.500000  0.250000      4.000000
  0.333333  0.500000  0.250000      4.000000
  0.444444  0.500000  0.250000      4.000000
  0.000000  0.000000  0.500000      1.000000
  0.111111  0.000000  0.500000      2.000000
  0.222222  0.000000  0.500000      2.000000
  0.333333  0.000000  0.500000      2.000000
  0.444444  0.000000  0.500000      2.000000
  0.000000  0.250000  0.500000      2.000000
  0.111111  0.250000  0.500000      4.000000
  0.222222  0.250000  0.500000      4.000000
  0.333333  0.250000  0.500000      4.000000
  0.444444  0.250000  0.500000      4.000000
  0.000000  0.500000  0.500000      1.000000
  0.111111  0.500000  0.500000      2.000000
  0.222222  0.500000  0.500000      2.000000
  0.333333  0.500000  0.500000      2.000000
  0.444444  0.500000  0.500000      2.000000

 Following cartesian coordinates:
            Coordinates               Weight
  0.000000  0.000000  0.000000      1.000000
  0.032527  0.000000  0.000000      2.000000
  0.065053  0.000000  0.000000      2.000000
  0.097580  0.000000  0.000000      2.000000
  0.130106  0.000000  0.000000      2.000000
  0.000000  0.033937  0.000000      2.000000
  0.032527  0.033937  0.000000      4.000000
  0.065053  0.033937  0.000000      4.000000
  0.097580  0.033937  0.000000      4.000000
  0.130106  0.033937  0.000000      4.000000
  0.000000  0.067874  0.000000      1.000000
  0.032527  0.067874  0.000000      2.000000
  0.065053  0.067874  0.000000      2.000000
  0.097580  0.067874  0.000000      2.000000
  0.130106  0.067874  0.000000      2.000000
  0.000000  0.000000  0.034323      2.000000
  0.032527  0.000000  0.034323      4.000000
  0.065053  0.000000  0.034323      4.000000
  0.097580  0.000000  0.034323      4.000000
  0.130106  0.000000  0.034323      4.000000
  0.000000  0.033937  0.034323      4.000000
  0.032527  0.033937  0.034323      8.000000
  0.065053  0.033937  0.034323      8.000000
  0.097580  0.033937  0.034323      8.000000
  0.130106  0.033937  0.034323      8.000000
  0.000000  0.067874  0.034323      2.000000
  0.032527  0.067874  0.034323      4.000000
  0.065053  0.067874  0.034323      4.000000
  0.097580  0.067874  0.034323      4.000000
  0.130106  0.067874  0.034323      4.000000
  0.000000  0.000000  0.068645      1.000000
  0.032527  0.000000  0.068645      2.000000
  0.065053  0.000000  0.068645      2.000000
  0.097580  0.000000  0.068645      2.000000
  0.130106  0.000000  0.068645      2.000000
  0.000000  0.033937  0.068645      2.000000
  0.032527  0.033937  0.068645      4.000000
  0.065053  0.033937  0.068645      4.000000
  0.097580  0.033937  0.068645      4.000000
  0.130106  0.033937  0.068645      4.000000
  0.000000  0.067874  0.068645      1.000000
  0.032527  0.067874  0.068645      2.000000
  0.065053  0.067874  0.068645      2.000000
  0.097580  0.067874  0.068645      2.000000
  0.130106  0.067874  0.068645      2.000000

 SYSTEM =  DFT routine
 POSCAR =  Ca4 Fe4 B4

 Startparameter for this run:
   NWRITE =      2    write-flag & timer
   PREC   = acc       normal or accurate (medium, high low for compatibility)
   ISTART =      0    job   : 0-new  1-cont  2-samecut
   ICHARG =      2    charge: 1-file 2-atom 10-const
   ISPIN  =      1    spin polarized calculation?
   LNONCOLLINEAR =      F non collinear calculations
   LSORBIT =      F    spin-orbit coupling
   INIWAV =      1    electr: 0-lowe 1-rand  2-diag
   LASPH  =      F    aspherical Exc in radial PAW
   METAGGA=      F    non-selfconsistent MetaGGA calc.

 Electronic Relaxation 1
   ENCUT  =  400.0 eV  29.40 Ry    5.42 a.u.   5.57 12.01 11.88*2*pi/ulx,y,z
   ENINI  =  400.0     initial cutoff
   ENAUG  =  535.5 eV  augmentation charge cutoff
   NELM   =    100;   NELMIN=  2; NELMDL= -5     # of ELM steps
   EDIFF  = 0.1E-04   stopping-criterion for ELM
   LREAL  =      F    real-space projection
   NLSPLINE    = F    spline interpolate recip. space projectors
   LCOMPAT=      F    compatible to vasp.4.4
   GGA_COMPAT  = T    GGA compatible to vasp.4.4-vasp.4.6
   LMAXPAW     = -100 max onsite density
   LMAXMIX     =    2 max onsite mixed and CHGCAR
   VOSKOWN=      0    Vosko Wilk Nusair interpolation
   ROPT   =    0.00000   0.00000   0.00000
 Ionic relaxation
   EDIFFG = 0.1E-03   stopping-criterion for IOM
   NSW    =     10    number of steps for IOM
   NBLOCK =      1;   KBLOCK =     10    inner block; outer block
   IBRION =      1    ionic relax: 0-MD 1-quasi-New 2-CG
[...]
     49       5.5259      0.00000
     50       5.6454      0.00000

[...]

 soft charge-density along one line, spin component           1
         0         1         2         3         4         5         6         7         8         9
 total charge-density along one line

------------------------ aborting loop because EDIFF is reached ----------------------------------------

 total charge

# of ion       s       p       d       tot
    1        2.064   5.880   0.340   8.284
    2        2.064   5.880   0.340   8.284
    3        2.064   5.880   0.341   8.285
    4        2.064   5.880   0.341   8.285
    5        0.517   0.477   6.479   7.473
    6        0.517   0.477   6.479   7.473
    7        0.517   0.478   6.470   7.464
    8        0.517   0.478   6.470   7.464
    9        0.854   1.076   0.000   1.929
   10        0.854   1.076   0.000   1.929
   11        0.854   1.076   0.000   1.930
   12        0.854   1.076   0.000   1.930
tot         13.741  29.731  27.260  70.733

  FORCE on cell =-STRESS in cart. coord.  units (eV):
  Direction    XX          YY          ZZ          XY          YZ          ZX
  Alpha Z   433.12062   433.12062   433.12062
  Ewald   -1921.34731 -1900.83180 -1487.60412     0.00000     0.00000     0.00000
  Hartree   451.48403   455.57363   537.69370    -0.00000    -0.00000    -0.00000
  E(xc)    -370.38905  -370.51514  -372.94302    -0.00000    -0.00000    -0.00000
  Local     498.27500   470.77419    29.39276    -0.00000     0.00000     0.00000
  n-local  -288.55252  -287.65404  -268.66688     0.51406     0.43579     0.48333
  augment   254.32474   255.20346   242.28394    -0.00000    -0.00000    -0.00000
  Kinetic   953.71893   957.21235   908.76926    -1.17033    -0.47173     1.22213
  Fock        0.00000     0.00000     0.00000     0.00000     0.00000     0.00000
  Total      10.63444    12.88329    22.04627     0.00000     0.00000    -0.00000
  in kB      92.95667   112.61404   192.70853     0.00000     0.00000    -0.00000

 VOLUME and BASIS-vectors are now :
  energy-cutoff  :      400.00
  volume of cell :      183.29
      direct lattice vectors                 reciprocal lattice vectors
     3.416010000  0.000000000  0.000000000     0.292739190  0.000000000  0.000000000
     0.000000000  7.366590000  0.000000000     0.000000000  0.135748019  0.000000000
     0.000000000  0.000000000  7.283820000     0.000000000  0.000000000  0.137290598

[...]

 FORCES acting on ions
    electron-ion (+dipol)            ewald-force                    non-local-force                 convergence-correction
   -.123E+01 -.222E+00 0.518E-07   0.128E+01 0.297E+00 0.169E-13   0.465E-01 0.179E-01 0.000E+00   -.622E-06 0.377E-03 -.193E-14
   0.123E+01 0.222E+00 -.517E-07   -.128E+01 -.297E+00 0.264E-13   -.465E-01 -.179E-01 0.000E+00   0.622E-06 -.377E-03 0.285E-13
   -.123E+01 0.222E+00 -.488E-06   0.128E+01 -.297E+00 -.165E-13   0.465E-01 -.179E-01 0.000E+00   -.622E-06 -.377E-03 0.297E-13
   0.123E+01 -.222E+00 0.488E-06   -.128E+01 0.297E+00 0.455E-13   -.465E-01 0.179E-01 0.000E+00   0.622E-06 0.377E-03 -.319E-14
   0.525E+01 -.143E-07 0.333E-05   -.460E+01 -.195E-13 -.107E-13   -.968E+00 0.434E-18 -.173E-17   0.779E-03 -.406E-14 -.101E-13
   -.525E+01 0.143E-07 -.333E-05   0.460E+01 0.511E-14 -.142E-13   0.968E+00 -.434E-18 -.867E-18   -.779E-03 0.184E-13 -.118E-13
   -.525E+01 -.143E-07 -.333E-05   0.460E+01 -.642E-13 -.284E-13   0.968E+00 0.000E+00 -.651E-18   -.779E-03 0.183E-13 0.913E-14
   0.525E+01 0.143E-07 0.333E-05   -.460E+01 -.207E-13 0.249E-13   -.968E+00 0.000E+00 0.651E-18   0.779E-03 -.295E-14 0.770E-14
   0.463E+00 -.460E+00 0.241E-06   -.717E+00 0.421E+00 -.136E-13   0.154E+00 -.477E-01 0.130E-17   0.789E-03 -.111E-03 -.251E-14
   -.463E+00 0.460E+00 -.241E-06   0.717E+00 -.421E+00 -.254E-14   -.154E+00 0.477E-01 0.434E-18   -.789E-03 0.111E-03 0.222E-14
   0.463E+00 0.460E+00 -.288E-06   -.717E+00 -.421E+00 -.727E-15   0.154E+00 0.477E-01 -.434E-18   0.789E-03 0.111E-03 0.804E-14
   -.463E+00 -.460E+00 0.288E-06   0.717E+00 0.421E+00 0.438E-14   -.154E+00 -.477E-01 -.434E-18   -.789E-03 -.111E-03 -.978E-15
   0.191E-11 0.619E-11 0.159E-10   0.119E-13 -.377E-14 0.314E-13   0.111E-15 -.694E-17 -.173E-17   0.711E-13 0.760E-13 0.548E-13

 POSITION                                       TOTAL-FORCE (eV/Angst)
      3.40689      0.00855      5.46287         0.093764      0.092833     -0.000000
      0.00912      7.35804      1.82096        -0.093764     -0.092833      0.000000
      3.40689      3.67475      1.82096         0.093764     -0.092833     -0.000000
      0.00912      3.69184      5.46287        -0.093764      0.092833      0.000000
      1.72010      5.52494      3.64191        -0.314006      0.000000      0.000000
      1.69591      1.84165      3.64191         0.314006      0.000000     -0.000000
      1.69591      1.84165      0.00000         0.314006      0.000000      0.000000
      1.72010      5.52494      0.00000        -0.314006      0.000000      0.000000
      1.77376      5.54572      5.46287        -0.099741     -0.087257      0.000000
      1.64225      1.82087      1.82096         0.099741      0.087257      0.000000
      1.77376      5.50417      1.82096        -0.099741      0.087257      0.000000
      1.64225      1.86242      5.46287         0.099741     -0.087257      0.000000
    total drift:                                0.000000      0.000000      0.000000

  FREE ENERGIE OF THE ION-ELECTRON SYSTEM (eV)
  free  energy   TOTEN  =       -59.34099187 eV

  energy  without entropy=      -59.33990116  energy(sigma->0) =      -59.34044652

 Quasi-Newton relaxation of ions (Broydens 2nd method)
  g(Force)  = 0.516E-02   g(Stress)= 0.615E+00

 Reset! Starting new Quasi-Newton update for ions

[...]

 d Force = 0.4565357E-02[ 0.393E-02, 0.520E-02]  d Energy = 0.5135980E+00-0.509E+00
 d Force = 0.6033847E-01[ 0.574E-01, 0.633E-01]  d Ewald  =-0.6172490E+02 0.618E+02

[...]

 retain information from N=  1 steps
 eigenvalues of (default step * inverse Hessian matrix)
  average eigenvalue of G=   3.0048
 eigenvalue spectrum of G is  3.0048

[...]

 Broyden mixing:
  rms(total) = 0.17870E-01    rms(broyden)= 0.15348E-01
  rms(prec ) = 0.21238E-01
  weight for this iteration     100.00
  WARNING: grid for Broyden might be to small

[...]

 d Force = 0.7926930E-03[ 0.777E-03, 0.809E-03]  d Energy = 0.9281926E-03-0.135E-03
 d Force = 0.5248924E-02[ 0.509E-02, 0.541E-02]  d Ewald  = 0.9870552E+00-0.982E+00

[...]

 d Force = 0.1504382E-02[ 0.144E-02, 0.157E-02]  d Energy = 0.1542479E-02-0.381E-04
 d Force = 0.9296427E-02[ 0.853E-02, 0.101E-01]  d Ewald  = 0.1329959E+01-0.132E+01

[...]

 Broyden mixing:
  rms(total) = 0.34484E-02    rms(broyden)= 0.30240E-02
  rms(prec ) = 0.38747E-02
  weight for this iteration     100.00
  WARNING: grid for Broyden might be to small

[...]

 d Force =-0.1814952E-03[-0.183E-03,-0.180E-03]  d Energy =-0.1680368E-03-0.135E-04
 d Force =-0.1086777E-02[-0.110E-02,-0.107E-02]  d Ewald  =-0.5184137E+00 0.517E+00

[...]

 eigenvalue-minimisations  :  5240
 total energy-change (2. order) :-0.6795242E-05  (-0.1533176E-04)
 number of electron      83.9999910 magnetization
 augmentation part       26.9428998 magnetization

 Broyden mixing:
  rms(total) = 0.15435E-02    rms(broyden)= 0.15349E-02
  rms(prec ) = 0.23845E-02
  weight for this iteration     100.00

 eigenvalues of (default mixing * dielectric matrix)
  average eigenvalue GAMMA=   0.8757
  1.9311  0.1329  0.5630

[...]

--------------------------------------- Iteration     10(   5)  ---------------------------------------

 eigenvalue-minimisations  :  2970
 total energy-change (2. order) : 0.1978621E-05  (-0.1046416E-05)
 number of electron      83.9999910 magnetization
 augmentation part       26.9428998 magnetization

 Free energy of the ion-electron system (eV)
  alpha Z        PSCENC =       379.48243750
  Ewald energy   TEWEN  =     -5081.76705244
  -Hartree energ DENC   =     -1546.21293881
  -exchange      EXHF   =         0.00000000
  -V(xc)+E(xc)   XCENC  =       206.96108915
  PAW double counting   =      6138.42429835    -6158.85481869
  entropy T*S    EENTRO =        -0.00122340
  eigenvalues    EBANDS =      -684.62191861
  atomic energy  EATOM  =      6686.23959825
  Solvation  Ediel_sol  =         0.00000000
  free energy    TOTEN  =       -60.35052869 eV

  energy without entropy =      -60.34930530  energy(sigma->0) =      -60.34991699

 average (electrostatic) potential at core
  the test charge radii are     1.1137  1.0103  0.7672
  (the norm of the test charge is              1.0000)
       1 -45.6970       2 -45.6970       3 -45.6970       4 -45.6970       5 -45.8696
       6 -45.8696       7 -45.8696       8 -45.8696       9 -28.9515      10 -28.9515
      11 -28.9515      12 -28.9515

 E-fermi :   2.6894     XC(G=0): -10.0334     alpha+bet :-10.8062

[...]

 k-point    45 :       0.4444    0.5000    0.5000
  band No.  band energies     occupation
      1     -36.8640      2.00000
      2     -36.8640      2.00000
      3     -36.8640      2.00000
      4     -36.8640      2.00000
      5     -18.0738      2.00000
      6     -18.0738      2.00000
      7     -18.0738      2.00000
      8     -18.0738      2.00000
      9     -17.9554      2.00000
     10     -17.9554      2.00000
     11     -17.9554      2.00000
     12     -17.9554      2.00000
     13     -17.9221      2.00000
     14     -17.9221      2.00000
     15     -17.9221      2.00000
     16     -17.9221      2.00000
     17      -3.1699      2.00000
     18      -3.1699      2.00000
     19      -3.1699      2.00000
     20      -3.1699      2.00000
     21       0.3541      2.00000
     22       0.3541      2.00000
     23       0.3541      2.00000
     24       0.3541      2.00000
     25       1.0692      2.00000
     26       1.0692      2.00000
     27       1.0692      2.00000
     28       1.0692      2.00000
     29       1.4417      2.00000
     30       1.4417      2.00000
     31       1.4417      2.00000
     32       1.4417      2.00000
     33       2.1393      2.00000
     34       2.1393      2.00000
     35       2.1393      2.00000
     36       2.1393      2.00000
     37       2.2670      2.00000
     38       2.2670      2.00000
     39       2.2670      2.00000
     40       2.2670      2.00000
     41       2.8176      0.00000
     42       2.8176      0.00000
     43       2.8176      0.00000
     44       2.8176      0.00000
     45       3.4878      0.00000
     46       3.4878      0.00000
     47       3.4878      0.00000
     48       3.4878      0.00000
     49       4.3572      0.00000
     50       4.3572      0.00000

 soft charge-density along one line, spin component           1
         0         1         2         3         4         5         6         7         8         9
 total charge-density along one line

------------------------ aborting loop because EDIFF is reached ----------------------------------------

[...]

  FORCE on cell =-STRESS in cart. coord.  units (eV):
  Direction    XX          YY          ZZ          XY          YZ          ZX
  Alpha Z   379.48244   379.48244   379.48244
  Ewald   -1836.35407 -1817.72223 -1427.69191    -0.00000     0.00000    -0.00000
  Hartree   482.22142   484.89529   579.11621    -0.00000    -0.00000    -0.00000
  E(xc)    -366.64806  -366.71995  -368.48674    -0.00000     0.00000    -0.00000
  Local     439.51309   415.70761   -37.30375    -0.00000    -0.00000    -0.00000
  n-local  -283.49206  -282.24957  -266.28254     0.35156     0.29229     0.19689
  augment   256.02857   256.45918   247.74035     0.00000    -0.00000    -0.00000
  Kinetic   929.14945   930.19476   893.47741    -1.06060    -0.42846     0.95994
  Fock        0.00000     0.00000     0.00000     0.00000     0.00000     0.00000
  Total      -0.09921     0.04753     0.05146     0.00000     0.00000     0.00000
  in kB      -0.75980     0.36403     0.39408     0.00000     0.00000     0.00000

 VOLUME and BASIS-vectors are now :
  energy-cutoff  :      400.00
  volume of cell :      209.20
      direct lattice vectors                 reciprocal lattice vectors
     3.552208288  0.000000000  0.000000000     0.281515024  0.000000000 -0.000000000
     0.000000000  7.725119519  0.000000000     0.000000000  0.129447835  0.000000000
     0.000000000  0.000000000  7.623569958    -0.000000000  0.000000000  0.131172142

  length of vectors
     3.552208288  7.725119519  7.623569958     0.281515024  0.129447835  0.131172142

 FORCES acting on ions
    electron-ion (+dipol)            ewald-force                    non-local-force                 convergence-correction
   -.250E+00 0.111E+01 0.364E-06   0.252E+00 -.109E+01 0.301E-13   0.121E-01 -.291E-01 0.136E-19   -.112E-03 0.641E-04 0.103E-11
   0.250E+00 -.111E+01 -.364E-06   -.252E+00 0.109E+01 -.168E-13   -.121E-01 0.291E-01 -.136E-19   0.112E-03 -.641E-04 0.103E-11
   -.250E+00 -.111E+01 -.505E-06   0.252E+00 0.109E+01 0.256E-13   0.121E-01 0.291E-01 0.136E-19   -.112E-03 -.641E-04 0.151E-11
   0.250E+00 0.111E+01 0.505E-06   -.252E+00 -.109E+01 0.303E-13   -.121E-01 -.291E-01 0.136E-19   0.112E-03 0.641E-04 -.343E-12
   0.284E+01 0.181E-08 -.608E-06   -.231E+01 0.722E-14 -.320E-13   -.575E+00 0.000E+00 -.108E-18   -.276E-02 -.173E-12 -.149E-12
   -.284E+01 -.181E-08 0.608E-06   0.231E+01 0.210E-13 -.568E-13   0.575E+00 0.000E+00 0.108E-18   0.276E-02 0.856E-13 -.510E-12
   -.284E+01 0.181E-08 0.608E-06   0.231E+01 -.699E-14 0.426E-13   0.575E+00 0.000E+00 0.000E+00   0.276E-02 0.312E-12 -.200E-12
   0.284E+01 -.181E-08 -.608E-06   -.231E+01 0.711E-14 -.249E-13   -.575E+00 0.000E+00 0.108E-18   -.276E-02 0.620E-12 -.123E-11
   -.388E+00 -.854E+00 0.485E-06   0.180E+00 0.840E+00 0.629E-15   0.101E+00 -.107E-03 0.867E-18   0.134E-03 0.334E-04 0.108E-14
   0.388E+00 0.854E+00 -.485E-06   -.180E+00 -.840E+00 0.286E-14   -.101E+00 0.107E-03 -.867E-18   -.134E-03 -.334E-04 0.201E-12
   -.388E+00 0.854E+00 -.783E-07   0.180E+00 -.840E+00 -.647E-15   0.101E+00 0.107E-03 -.173E-17   0.134E-03 -.334E-04 0.276E-12
   0.388E+00 -.854E+00 0.783E-07   -.180E+00 0.840E+00 -.284E-14   -.101E+00 -.107E-03 0.173E-17   -.134E-03 0.334E-04 -.622E-13
   0.504E-11 0.556E-12 0.374E-11   0.666E-14 -.143E-13 -.178E-14   0.000E+00 0.000E+00 0.136E-18   -.683E-13 0.154E-11 0.155E-11

 POSITION                                       TOTAL-FORCE (eV/Angst)
      3.55002      0.01297      5.71768         0.013925     -0.010026      0.000000
      0.00219      7.71215      1.90589        -0.013925      0.010026     -0.000000
      3.55002      3.84959      1.90589         0.013925      0.010026      0.000000
      0.00219      3.87553      5.71768        -0.013925     -0.010026     -0.000000
      1.77432      5.79384      3.81178        -0.039766      0.000000     -0.000000
      1.77788      1.93128      3.81178         0.039766      0.000000      0.000000
      1.77788      1.93128      0.00000         0.039766      0.000000      0.000000
      1.77432      5.79384      0.00000        -0.039766      0.000000     -0.000000
      1.81474      5.80786      5.71768        -0.107022     -0.014562     -0.000000
      1.73746      1.91726      1.90589         0.107022      0.014562      0.000000
      1.81474      5.77982      1.90589        -0.107022      0.014562     -0.000000
      1.73746      1.94530      5.71768         0.107022     -0.014562      0.000000
    total drift:                                0.000000      0.000000      0.000000

  FREE ENERGIE OF THE ION-ELECTRON SYSTEM (eV)
  free  energy   TOTEN  =       -60.35052869 eV

  energy  without entropy=      -60.34930530  energy(sigma->0) =      -60.34991699

 d Force = 0.3931282E-03[ 0.389E-03, 0.397E-03]  d Energy = 0.3998006E-03-0.667E-05
 d Force = 0.2093930E-02[ 0.204E-02, 0.214E-02]  d Ewald  =-0.3710909E+00 0.373E+00

 Quasi-Newton relaxation of ions (Broydens 2nd method)
  g(Force)  = 0.523E-03   g(Stress)= 0.119E-04

 retain information from N=  1 steps
 eigenvalues of (default step * inverse Hessian matrix)
  average eigenvalue of G=   4.8387
 eigenvalue spectrum of G is  4.8387

 total charge

# of ion       s       p       d       tot
    1        2.053   5.865   0.276   8.194
    2        2.053   5.865   0.276   8.194
    3        2.053   5.865   0.276   8.194
    4        2.053   5.865   0.276   8.194
    5        0.470   0.417   6.367   7.254
    6        0.470   0.417   6.367   7.254
    7        0.470   0.417   6.364   7.250
    8        0.470   0.417   6.364   7.250
    9        0.821   1.001   0.000   1.823
   10        0.821   1.001   0.000   1.823
   11        0.821   1.001   0.000   1.823
   12        0.821   1.001   0.000   1.823
tot         13.378  29.131  26.566  69.075