 vasp.5.4.4.18Apr17-6-g9f103f2a35 (build Apr 24 2023 09:55:28) complex

 executed on             LinuxIFC date 2024.04.22  15:40:22

 INCAR:
 POTCAR:    PAW_PBE Ca_sv 06Sep2000
 POTCAR:    PAW_PBE Fe 06Sep2000
 POTCAR:    PAW_PBE B 06Sep2000
 POTCAR:    PAW_PBE P 06Sep2000
 POTCAR:    PAW_PBE Ca_sv 06Sep2000
   VRHFIN =Ca: 3s3p4s

   TITEL  = PAW_PBE Ca_sv 06Sep2000
   POMASS =   40.078; ZVAL   =   10.000    mass and valenz
   ENMAX  =  266.622; ENMIN  =  199.967 eV

 POTCAR:    PAW_PBE Fe 06Sep2000
   VRHFIN =Fe:  d7 s1

   TITEL  = PAW_PBE Fe 06Sep2000
   POMASS =   55.847; ZVAL   =    8.000    mass and valenz
   ENMAX  =  267.882; ENMIN  =  200.911 eV

 POTCAR:    PAW_PBE B 06Sep2000
   VRHFIN =B: s2p1

[...]

 POTCAR:    PAW_PBE P 06Sep2000
   VRHFIN =P : s2p3

   TITEL  = PAW_PBE P 06Sep2000
   POMASS =   30.974; ZVAL   =    5.000    mass and valenz
   ENMAX  =  255.040; ENMIN  =  191.280 eV

  PAW_PBE Ca_sv 06Sep2000               :
  PAW_PBE Fe 06Sep2000                  :
  PAW_PBE B 06Sep2000                   :
  PAW_PBE P 06Sep2000                   :

 POSCAR: Ca2 Fe2 B2 P2
  positions in direct lattice
 exchange correlation table for  LEXCH =        8
   RHO(1)=    0.500       N(1)  =     2000
   RHO(2)=  100.500       N(2)  =     4000

 ion  position               nearest neighbor table
   1  0.000  0.000  0.250-   4 2.91   4 2.91   4 2.91   4 2.91   7 2.93   8 2.93   7 2.93   8 2.93

   2  0.000  0.000  0.750-   3 2.91   3 2.91   3 2.91   3 2.91   8 2.93   7 2.93   7 2.93   8 2.93

   3  0.500  0.500  0.750-   5 1.79   6 1.79   7 2.51   8 2.51   7 2.51   8 2.51   2 2.91   2 2.91
                             2 2.91   2 2.91
   4  0.500  0.500  0.250-   5 1.79   6 1.79   7 2.51   8 2.51   7 2.51   8 2.51   1 2.91   1 2.91
                             1 2.91   1 2.91
   5  0.500  0.500  0.000-   7 1.75   7 1.75   3 1.79   4 1.79
   6  0.500  0.500  0.500-   8 1.75   8 1.75   3 1.79   4 1.79
   7  0.000  0.500  0.000-   5 1.75   5 1.75   3 2.51   3 2.51   4 2.51   4 2.51   1 2.93   2 2.93
                             2 2.93   1 2.93
   8  0.000  0.500  0.500-   6 1.75   6 1.75   3 2.51   3 2.51   4 2.51   4 2.51   2 2.93   1 2.93
                             2 2.93   1 2.93

  LATTYP: Found a simple orthorhombic cell.
 ALAT       =     3.4995700000
 B/A-ratio  =     1.3265115428
 C/A-ratio  =     2.0514034581

  Lattice vectors:

 A1 = (   3.4995700000,   0.0000000000,   0.0000000000)
 A2 = (   0.0000000000,   4.6422200000,   0.0000000000)
 A3 = (   0.0000000000,   0.0000000000,   7.1790300000)

Analysis of symmetry for initial positions (statically):
 Subroutine PRICEL returns following result:

[...]

   2 primitive cells build up your supercell.

 Routine SETGRP: Setting up the symmetry group for a
 simple orthorhombic supercell.

 Subroutine GETGRP returns: Found  8 space group operations
 (whereof  8 operations were pure point group operations)
 out of a pool of  8 trial point group operations.

The static configuration has the point symmetry D_2h.

Analysis of symmetry for dynamics (positions and initial velocities):
 Subroutine PRICEL returns following result:

  LATTYP: Found a simple orthorhombic cell.
 ALAT       =     3.4995700000
 B/A-ratio  =     1.0257017291
 C/A-ratio  =     1.3265115428

  Lattice vectors:

 A1 = (  -3.4995700000,   0.0000000000,   0.0000000000)
 A2 = (   0.0000000000,   0.0000000000,  -3.5895150000)
 A3 = (  -0.0000000000,  -4.6422200000,  -0.0000000000)

   2 primitive cells build up your supercell.

 Routine SETGRP: Setting up the symmetry group for a
 simple orthorhombic supercell.

 Subroutine GETGRP returns: Found  8 space group operations
 (whereof  8 operations were pure point group operations)
 out of a pool of  8 trial point group operations.

The dynamic configuration has the point symmetry D_2h.

 Subroutine INISYM returns: Found  8 space group operations
 (whereof  8 operations are pure point group operations),
 and found     2 'primitive' translations

 KPOINTS: Automatic mesh

Automatic generation of k-mesh.
 generate k-points for:    9    6    4
Space group operators:
 irot       det(A)        alpha          n_x          n_y          n_z        tau_x        tau_y        tau_z
    1     1.000000     0.000001     1.000000     0.000000     0.000000     0.000000     0.000000     0.000000
    2    -1.000000     0.000001     1.000000     0.000000     0.000000     0.000000     0.000000     0.000000
    3     1.000000   180.000000    -0.000000    -0.000000     1.000000     0.000000     0.000000     0.000000
    4    -1.000000   180.000000    -0.000000    -0.000000     1.000000     0.000000     0.000000     0.000000
    5     1.000000   180.000000     0.000000     1.000000     0.000000     0.000000     0.000000     0.000000
    6    -1.000000   180.000000     0.000000     1.000000     0.000000     0.000000     0.000000     0.000000
    7     1.000000   180.000000     1.000000    -0.000000     0.000000     0.000000     0.000000     0.000000
    8    -1.000000   180.000000     1.000000    -0.000000     0.000000     0.000000     0.000000     0.000000

 Subroutine IBZKPT returns following result:

 Found     60 irreducible k-points:

 Following reciprocal coordinates:
            Coordinates               Weight
  0.000000  0.000000  0.000000      1.000000
  0.111111  0.000000  0.000000      2.000000
  0.222222  0.000000  0.000000      2.000000
  0.333333  0.000000  0.000000      2.000000
  0.444444  0.000000  0.000000      2.000000
  0.000000  0.166667  0.000000      2.000000
  0.111111  0.166667  0.000000      4.000000
  0.222222  0.166667  0.000000      4.000000
  0.333333  0.166667  0.000000      4.000000
  0.444444  0.166667  0.000000      4.000000
  0.000000  0.333333  0.000000      2.000000
  0.111111  0.333333  0.000000      4.000000
  0.222222  0.333333  0.000000      4.000000
  0.333333  0.333333  0.000000      4.000000
  0.444444  0.333333  0.000000      4.000000
  0.000000  0.500000  0.000000      1.000000
  0.111111  0.500000  0.000000      2.000000
  0.222222  0.500000  0.000000      2.000000
  0.333333  0.500000  0.000000      2.000000
  0.444444  0.500000  0.000000      2.000000
  0.000000  0.000000  0.250000      2.000000
  0.111111  0.000000  0.250000      4.000000
  0.222222  0.000000  0.250000      4.000000
  0.333333  0.000000  0.250000      4.000000
  0.444444  0.000000  0.250000      4.000000
  0.000000  0.166667  0.250000      4.000000
  0.111111  0.166667  0.250000      8.000000
  0.222222  0.166667  0.250000      8.000000
  0.333333  0.166667  0.250000      8.000000
  0.444444  0.166667  0.250000      8.000000
  0.000000  0.333333  0.250000      4.000000
  0.111111  0.333333  0.250000      8.000000
  0.222222  0.333333  0.250000      8.000000
  0.333333  0.333333  0.250000      8.000000
  0.444444  0.333333  0.250000      8.000000
  0.000000  0.500000  0.250000      2.000000
  0.111111  0.500000  0.250000      4.000000
  0.222222  0.500000  0.250000      4.000000
  0.333333  0.500000  0.250000      4.000000
  0.444444  0.500000  0.250000      4.000000
  0.000000  0.000000  0.500000      1.000000
  0.111111  0.000000  0.500000      2.000000
  0.222222  0.000000  0.500000      2.000000
  0.333333  0.000000  0.500000      2.000000
  0.444444  0.000000  0.500000      2.000000
  0.000000  0.166667  0.500000      2.000000
  0.111111  0.166667  0.500000      4.000000
  0.222222  0.166667  0.500000      4.000000
  0.333333  0.166667  0.500000      4.000000
  0.444444  0.166667  0.500000      4.000000
  0.000000  0.333333  0.500000      2.000000
  0.111111  0.333333  0.500000      4.000000
  0.222222  0.333333  0.500000      4.000000
  0.333333  0.333333  0.500000      4.000000
  0.444444  0.333333  0.500000      4.000000
  0.000000  0.500000  0.500000      1.000000
  0.111111  0.500000  0.500000      2.000000
  0.222222  0.500000  0.500000      2.000000
  0.333333  0.500000  0.500000      2.000000
  0.444444  0.500000  0.500000      2.000000

 Following cartesian coordinates:
            Coordinates               Weight
  0.000000  0.000000  0.000000      1.000000
  0.031750 -0.000000  0.000000      2.000000
  0.063500 -0.000000  0.000000      2.000000
  0.095250 -0.000000  0.000000      2.000000
  0.127000 -0.000000  0.000000      2.000000
  0.000000  0.035902  0.000000      2.000000
  0.031750  0.035902  0.000000      4.000000
  0.063500  0.035902  0.000000      4.000000
  0.095250  0.035902  0.000000      4.000000
  0.127000  0.035902  0.000000      4.000000
  0.000000  0.071805  0.000000      2.000000
  0.031750  0.071805  0.000000      4.000000
  0.063500  0.071805  0.000000      4.000000
  0.095250  0.071805  0.000000      4.000000
  0.127000  0.071805  0.000000      4.000000
  0.000000  0.107707  0.000000      1.000000
  0.031750  0.107707  0.000000      2.000000
  0.063500  0.107707  0.000000      2.000000
  0.095250  0.107707  0.000000      2.000000
  0.127000  0.107707  0.000000      2.000000
 -0.000000 -0.000000  0.034824      2.000000
  0.031750 -0.000000  0.034824      4.000000
  0.063500 -0.000000  0.034824      4.000000
  0.095250 -0.000000  0.034824      4.000000
  0.127000 -0.000000  0.034824      4.000000
 -0.000000  0.035902  0.034824      4.000000
  0.031750  0.035902  0.034824      8.000000
  0.063500  0.035902  0.034824      8.000000
  0.095250  0.035902  0.034824      8.000000
  0.127000  0.035902  0.034824      8.000000
 -0.000000  0.071805  0.034824      4.000000
  0.031750  0.071805  0.034824      8.000000
  0.063500  0.071805  0.034824      8.000000
  0.095250  0.071805  0.034824      8.000000
  0.127000  0.071805  0.034824      8.000000
 -0.000000  0.107707  0.034824      2.000000
  0.031750  0.107707  0.034824      4.000000
  0.063500  0.107707  0.034824      4.000000
  0.095250  0.107707  0.034824      4.000000
  0.127000  0.107707  0.034824      4.000000
 -0.000000 -0.000000  0.069647      1.000000
  0.031750 -0.000000  0.069647      2.000000
  0.063500 -0.000000  0.069647      2.000000
  0.095250 -0.000000  0.069647      2.000000
  0.127000 -0.000000  0.069647      2.000000
 -0.000000  0.035902  0.069647      2.000000
  0.031750  0.035902  0.069647      4.000000
  0.063500  0.035902  0.069647      4.000000
  0.095250  0.035902  0.069647      4.000000
  0.127000  0.035902  0.069647      4.000000
 -0.000000  0.071805  0.069647      2.000000
  0.031750  0.071805  0.069647      4.000000
  0.063500  0.071805  0.069647      4.000000
  0.095250  0.071805  0.069647      4.000000
  0.127000  0.071805  0.069647      4.000000
 -0.000000  0.107707  0.069647      1.000000
  0.031750  0.107707  0.069647      2.000000
  0.063500  0.107707  0.069647      2.000000
  0.095250  0.107707  0.069647      2.000000
  0.127000  0.107707  0.069647      2.000000

 SYSTEM =  DFT routine
 POSCAR =  Ca2 Fe2 B2 P2

 Startparameter for this run:
   NWRITE =      2    write-flag & timer
   PREC   = acc       normal or accurate (medium, high low for compatibility)
   ISTART =      0    job   : 0-new  1-cont  2-samecut
   ICHARG =      2    charge: 1-file 2-atom 10-const
   ISPIN  =      1    spin polarized calculation?
   LNONCOLLINEAR =      F non collinear calculations
   LSORBIT =      F    spin-orbit coupling
[...]
   NGX = 11   NGY = 15   NGZ = 23
  (NGX  = 48   NGY  = 60   NGZ  = 96)
  gives a total of   3795 points

 initial charge density was supplied:
 charge density of overlapping atoms calculated
 number of electron      52.0000000 magnetization
 keeping initial charge density in first step

 Maximum index for augmentation-charges          854 (set IRDMAX)

 First call to EWALD:  gamma=   0.363
 Maximum number of real-space cells 4x 3x 2
 Maximum number of reciprocal cells 2x 3x 4

--------------------------------------- Iteration      1(   1)  ---------------------------------------

 eigenvalue-minimisations  :  4200
 total energy-change (2. order) : 0.4223473E+03  (-0.2062969E+04)
 number of electron      52.0000000 magnetization
 augmentation part       52.0000000 magnetization

 Free energy of the ion-electron system (eV)
  alpha Z        PSCENC =       228.56959526
  Ewald energy   TEWEN  =     -2976.06588353
  -Hartree energ DENC   =      -857.67326091
  -exchange      EXHF   =         0.00000000
  -V(xc)+E(xc)   XCENC  =       116.34806238
  PAW double counting   =      2968.40852088    -2945.74066407
  entropy T*S    EENTRO =        -0.00012122
  eigenvalues    EBANDS =       193.29979585
  atomic energy  EATOM  =      3695.20123917
  Solvation  Ediel_sol  =         0.00000000
  free energy    TOTEN  =       422.34728380 eV

  energy without entropy =      422.34740502  energy(sigma->0) =      422.34734441

[...]

 eigenvalue-minimisations  :  4215
 total energy-change (2. order) :-0.4291628E+03  (-0.4174175E+03)
 number of electron      52.0000000 magnetization
 augmentation part       52.0000000 magnetization

[...]

 Broyden mixing:
  rms(total) = 0.30256E+01    rms(broyden)= 0.30254E+01
  rms(prec ) = 0.41244E+01
  weight for this iteration     100.00

[...]

 eigenvalues of (default mixing * dielectric matrix)
  average eigenvalue GAMMA=   0.3073
  0.3073

[...]

 average (electrostatic) potential at core
  the test charge radii are     1.1137  1.0103  0.7672  0.9587
  (the norm of the test charge is              1.0000)
       1 -43.3408       2 -43.3408       3 -42.4110       4 -42.4110       5 -26.9186
       6 -26.9186       7 -83.4705       8 -83.4705

 E-fermi :   6.3402     XC(G=0): -10.6982     alpha+bet :-13.4781

 k-point     1 :       0.0000    0.0000    0.0000
  band No.  band energies     occupation
      1     -34.5595      2.00000
      2     -34.5432      2.00000
      3     -15.8809      2.00000
      4     -15.6590      2.00000
      5     -15.6120      2.00000
      6     -15.5760      2.00000
      7     -15.4818      2.00000
      8     -15.4646      2.00000
      9      -8.3290      2.00000
     10      -7.2531      2.00000
     11      -1.5946      2.00000
     12      -1.4333      2.00000
     13      -0.7201      2.00000
     14       0.3715      2.00000
     15       1.1804      2.00000
     16       1.9381      2.00000
     17       2.3466      2.00000
     18       2.8343      2.00000
     19       3.8033      2.00000
     20       4.6542      2.00000
     21       4.7413      2.00000
     22       5.1259      2.00000
     23       5.3930      2.00000
     24       5.5991      2.00000
     25       6.1928      2.00000
     26       6.3364      1.41004
     27       6.3374      1.31044
     28       7.3449      0.00000
     29       7.4625      0.00000
     30       8.1971      0.00000
     31       8.8876      0.00000
     32       9.0605      0.00000
     33       9.8281      0.00000
     34       9.9093      0.00000
     35      10.3265      0.00000

[...]

 soft charge-density along one line, spin component           1
         0         1         2         3         4         5         6         7         8         9
 total charge-density along one line

------------------------ aborting loop because EDIFF is reached ----------------------------------------

 total charge

# of ion       s       p       d       tot
    1        2.058   5.851   0.336   8.245
    2        2.058   5.851   0.336   8.245
    3        0.526   0.559   6.767   7.853
    4        0.526   0.559   6.767   7.853
    5        0.763   1.436   0.000   2.199
    6        0.763   1.436   0.000   2.199
    7        0.973   1.596   0.000   2.569
    8        0.973   1.596   0.000   2.569
tot          8.642  18.884  14.206  41.732

  FORCE on cell =-STRESS in cart. coord.  units (eV):
  Direction    XX          YY          ZZ          XY          YZ          ZX
  Alpha Z   228.56960   228.56960   228.56960
  Ewald    -855.49984 -1277.26063  -843.31077    -0.00000    -0.00000     0.00000
  Hartree   332.22940   206.25107   310.61093    -0.00000    -0.00000    -0.00000
  E(xc)    -223.38595  -224.04284  -224.21336     0.00000    -0.00000    -0.00000
  Local    -109.94794   388.92318   -92.24374    -0.00000    -0.00000    -0.00000
  n-local   -29.27420   -47.90559   -38.37172     2.37004     0.28727    -0.46744
  augment   105.14869   109.85550    97.56436     0.00000    -0.00000     0.00000
  Kinetic   570.09500   618.91466   583.34171     0.14279    -0.37832    -0.17285
  Fock        0.00000     0.00000     0.00000     0.00000     0.00000     0.00000
  Total      17.93475     3.30495    21.94700     0.00000     0.00000     0.00000
  in kB     246.37676    45.40139   301.49465     0.00000     0.00000     0.00000

 VOLUME and BASIS-vectors are now :
  energy-cutoff  :      400.00
  volume of cell :      116.63
      direct lattice vectors                 reciprocal lattice vectors
     3.499570000  0.000000000  0.000000000     0.285749392 -0.000000000  0.000000000
     0.000000000  4.642220000  0.000000000     0.000000000  0.215414177  0.000000000
     0.000000000  0.000000000  7.179030000    -0.000000000 -0.000000000  0.139294584

[...]

 FORCES acting on ions
    electron-ion (+dipol)            ewald-force                    non-local-force                 convergence-correction
   0.365E-14 0.774E-14 0.167E-12   0.768E-14 -.297E-14 0.000E+00   -.808E-23 0.000E+00 -.265E-22   0.939E-14 0.515E-14 -.657E-13
   0.285E-14 0.680E-14 0.531E-12   0.702E-14 -.328E-14 0.426E-13   -.438E-23 0.000E+00 0.000E+00   0.899E-14 0.513E-14 0.725E-13
   0.192E-12 -.110E-11 0.483E-12   -.542E-14 0.281E-14 0.142E-13   -.172E-23 0.827E-23 -.331E-23   0.588E-14 0.414E-13 0.813E-13
   0.193E-12 -.909E-12 -.128E-11   -.472E-14 0.279E-14 -.142E-13   0.230E-23 0.132E-22 0.000E+00   0.518E-14 0.444E-13 -.694E-13
   0.996E-14 -.376E-12 0.226E-12   0.287E-14 0.355E-15 -.169E-13   0.139E-22 0.000E+00 0.000E+00   0.199E-14 0.714E-14 -.195E-13
   0.993E-14 -.596E-12 -.154E-12   0.297E-14 0.338E-15 -.118E-13   0.331E-22 0.000E+00 -.662E-23   0.198E-14 0.751E-14 0.162E-13
   -.668E-14 0.181E-13 0.210E-13   -.121E-14 0.436E-15 -.479E-14   -.108E-22 -.529E-22 0.529E-22   -.289E-14 0.872E-14 -.249E-13
   -.646E-14 0.184E-13 -.710E-13   -.137E-14 0.360E-15 0.514E-14   0.170E-22 -.794E-22 0.529E-22   -.290E-14 0.947E-14 0.222E-13
   0.399E-12 -.293E-11 -.799E-13   0.781E-14 0.842E-15 0.142E-13   0.413E-22 -.111E-21 0.695E-22   0.276E-13 0.129E-12 0.126E-13

 POSITION                                       TOTAL-FORCE (eV/Angst)
      0.00000      0.00000      1.79476        -0.000000     -0.000000     -0.000000
      0.00000      0.00000      5.38427        -0.000000     -0.000000      0.000000
      1.74979      2.32111      5.38427         0.000000     -0.000000     -0.000000
      1.74979      2.32111      1.79476         0.000000     -0.000000     -0.000000
      1.74979      2.32111      0.00000        -0.000000      0.000000     -0.000000
      1.74979      2.32111      3.58952        -0.000000      0.000000     -0.000000
      0.00000      2.32111      0.00000        -0.000000     -0.000000     -0.000000
      0.00000      2.32111      3.58952        -0.000000     -0.000000     -0.000000
    total drift:                                0.000000     -0.000000     -0.000000

  FREE ENERGIE OF THE ION-ELECTRON SYSTEM (eV)
  free  energy   TOTEN  =       -40.84843984 eV

  energy  without entropy=      -40.84814337  energy(sigma->0) =      -40.84829160

 Quasi-Newton relaxation of ions (Broydens 2nd method)
  g(Force)  = 0.182E-59   g(Stress)= 0.982E+00

 Reset! Starting new Quasi-Newton update for ions

[...]

 d Force = 0.0000000E+00[ 0.000E+00, 0.000E+00]  d Energy = 0.7749986E+00-0.775E+00
 d Force = 0.0000000E+00[ 0.000E+00, 0.000E+00]  d Ewald  =-0.4529789E+02 0.453E+02

[...]

 retain information from N=  1 steps
 eigenvalues of (default step * inverse Hessian matrix)
  average eigenvalue of G=   2.4522
 eigenvalue spectrum of G is  2.4522

[...]

 eigenvalue-minimisations  :  7085
 total energy-change (2. order) :-0.1701133E+00  (-0.4872584E+00)
 number of electron      52.0000007 magnetization
 augmentation part       12.5282229 magnetization

[...]

 Broyden mixing:
  rms(total) = 0.13046E-02    rms(broyden)= 0.12766E-02
  rms(prec ) = 0.19124E-02
  weight for this iteration     100.00

 eigenvalues of (default mixing * dielectric matrix)
  average eigenvalue GAMMA=   1.3066
  2.6778  2.6778  0.1917  1.5862  1.0364  1.0364  1.0765  0.8741  0.6026

[...]

--------------------------------------- Iteration      3(  11)  ---------------------------------------

 eigenvalue-minimisations  :  3195
 total energy-change (2. order) : 0.2320304E-05  (-0.1181776E-05)
 number of electron      52.0000007 magnetization
 augmentation part       12.6026682 magnetization

 Free energy of the ion-electron system (eV)
  alpha Z        PSCENC =       201.32713144
  Ewald energy   TEWEN  =     -2865.33443864
  -Hartree energ DENC   =      -886.13117160
  -exchange      EXHF   =         0.00000000
  -V(xc)+E(xc)   XCENC  =       113.55441228
  PAW double counting   =      4670.36738863    -4664.49823876
  entropy T*S    EENTRO =        -0.00047557
  eigenvalues    EBANDS =      -306.64867640
  atomic energy  EATOM  =      3695.20123917
  Solvation  Ediel_sol  =         0.00000000
  free energy    TOTEN  =       -42.16282946 eV

  energy without entropy =      -42.16235389  energy(sigma->0) =      -42.16259167

 average (electrostatic) potential at core
  the test charge radii are     1.1137  1.0103  0.7672  0.9587
  (the norm of the test charge is              1.0000)
       1 -44.6821       2 -44.6821       3 -43.4981       4 -43.4981       5 -27.8702
       6 -27.8702       7 -84.4547       8 -84.4547

 E-fermi :   5.0249     XC(G=0): -10.1631     alpha+bet :-11.8717

[...]

 k-point    60 :       0.4444    0.5000    0.5000
  band No.  band energies     occupation
      1     -35.8361      2.00000
      2     -35.8361      2.00000
      3     -16.9871      2.00000
      4     -16.9871      2.00000
      5     -16.9186      2.00000
      6     -16.9186      2.00000
      7     -16.8669      2.00000
      8     -16.8669      2.00000
      9      -7.0269      2.00000
     10      -7.0269      2.00000
     11      -4.4575      2.00000
     12      -4.4575      2.00000
     13       1.1134      2.00000
     14       1.1134      2.00000
     15       1.3618      2.00000
     16       1.3618      2.00000
     17       2.1864      2.00000
     18       2.1864      2.00000
     19       2.3642      2.00000
     20       2.3642      2.00000
     21       4.1166      2.00000
     22       4.1166      2.00000
     23       4.6639      2.00000
     24       4.6639      2.00000
     25       4.9284      2.00000
     26       4.9284      2.00000
     27       5.3737      0.00000
     28       5.3737      0.00000
     29       5.6792      0.00000
     30       5.6792      0.00000
     31       7.9162      0.00000
     32       7.9162      0.00000
     33       8.2906      0.00000
     34       8.2906      0.00000
     35       9.1444      0.00000

 soft charge-density along one line, spin component           1
         0         1         2         3         4         5         6         7         8         9
 total charge-density along one line

------------------------ aborting loop because EDIFF is reached ----------------------------------------

[...]

  FORCE on cell =-STRESS in cart. coord.  units (eV):
  Direction    XX          YY          ZZ          XY          YZ          ZX
  Alpha Z   201.32713   201.32713   201.32713
  Ewald    -828.05470 -1183.64538  -853.63967     0.00000     0.00000    -0.00000
  Hartree   345.88572   234.25211   305.98186    -0.00000    -0.00000    -0.00000
  E(xc)    -219.63735  -220.91503  -220.46624     0.00000     0.00000    -0.00000
  Local    -123.16015   301.52423   -59.38246     0.00000    -0.00000    -0.00000
  n-local   -34.08957   -40.68598   -35.24898     2.17361     0.18214    -0.86576
  augment   105.66907   109.86151   100.57553    -0.00000     0.00000    -0.00000
  Kinetic   556.35045   597.59784   562.56979    -0.25602    -0.34835     0.76255
  Fock        0.00000     0.00000     0.00000     0.00000     0.00000     0.00000
  Total       4.29060    -0.68357     1.71695    -0.00000    -0.00000     0.00000
  in kB      51.91664    -8.27120    20.77529    -0.00000    -0.00000     0.00000

 VOLUME and BASIS-vectors are now :
  energy-cutoff  :      400.00
  volume of cell :      132.41
      direct lattice vectors                 reciprocal lattice vectors
     3.700065289  0.000000000  0.000000000     0.270265501 -0.000000000 -0.000000000
     0.000000000  4.683516914  0.000000000    -0.000000000  0.213514762 -0.000000000
     0.000000000  0.000000000  7.640835408    -0.000000000 -0.000000000  0.130875742

  length of vectors
     3.700065289  4.683516914  7.640835408     0.270265501  0.213514762  0.130875742

 FORCES acting on ions
    electron-ion (+dipol)            ewald-force                    non-local-force                 convergence-correction
   -.206E-14 0.774E-14 0.180E-12   0.627E-14 0.757E-16 0.000E+00   -.212E-22 -.226E-24 0.000E+00   -.714E-14 0.161E-13 0.993E-14
   -.153E-14 0.823E-14 0.569E-12   0.646E-14 -.756E-16 0.284E-13   0.289E-22 0.220E-24 0.000E+00   -.758E-14 0.162E-13 0.128E-14
   0.239E-12 -.106E-11 0.553E-12   -.728E-14 0.195E-14 0.426E-13   -.314E-23 -.820E-25 0.000E+00   0.169E-13 0.248E-13 -.695E-14
   0.239E-12 -.803E-12 -.129E-11   -.707E-14 0.165E-14 0.142E-13   0.134E-23 0.524E-25 0.000E+00   0.165E-13 0.252E-13 0.633E-14
   0.903E-14 -.343E-12 0.187E-12   -.175E-14 -.142E-16 -.239E-14   -.636E-23 -.110E-24 -.265E-22   0.382E-14 0.478E-14 0.109E-13
   0.907E-14 -.581E-12 -.118E-12   -.174E-14 -.314E-16 0.248E-14   0.580E-23 -.889E-25 -.265E-22   0.390E-14 0.477E-14 -.124E-13
   -.548E-14 0.157E-13 -.152E-13   0.621E-14 -.251E-14 -.464E-13   0.293E-23 0.395E-24 0.000E+00   -.603E-14 0.566E-14 0.127E-13
   -.558E-14 0.165E-13 -.338E-13   0.626E-14 -.254E-14 -.389E-13   -.182E-22 0.632E-23 0.000E+00   -.612E-14 0.565E-14 -.134E-13
   0.482E-12 -.274E-11 0.343E-13   0.736E-14 -.150E-14 0.241E-17   -.100E-22 0.648E-23 -.529E-22   0.143E-13 0.103E-12 0.837E-14

 POSITION                                       TOTAL-FORCE (eV/Angst)
      0.00000      0.00000      1.91021         0.000000     -0.000000      0.000000
      0.00000      0.00000      5.73063         0.000000     -0.000000      0.000000
      1.85003      2.34176      5.73063        -0.000000     -0.000000      0.000000
      1.85003      2.34176      1.91021        -0.000000     -0.000000      0.000000
      1.85003      2.34176      0.00000         0.000000      0.000000      0.000000
      1.85003      2.34176      3.82042         0.000000     -0.000000     -0.000000
      0.00000      2.34176      0.00000         0.000000     -0.000000     -0.000000
      0.00000      2.34176      3.82042         0.000000     -0.000000      0.000000
    total drift:                                0.000000     -0.000000      0.000000

  FREE ENERGIE OF THE ION-ELECTRON SYSTEM (eV)
  free  energy   TOTEN  =       -42.16282946 eV

  energy  without entropy=      -42.16235389  energy(sigma->0) =      -42.16259167

 d Force = 0.0000000E+00[ 0.000E+00, 0.000E+00]  d Energy = 0.5393911E+00-0.539E+00
 d Force = 0.0000000E+00[ 0.000E+00, 0.000E+00]  d Ewald  =-0.6543356E+02 0.654E+02

 Quasi-Newton relaxation of ions (Broydens 2nd method)
  g(Force)  = 0.546E-60   g(Stress)= 0.263E-01

 retain information from N=  1 steps
 eigenvalues of (default step * inverse Hessian matrix)
  average eigenvalue of G=   2.9472
 eigenvalue spectrum of G is  2.9472

 total charge

# of ion       s       p       d       tot
    1        2.050   5.844   0.287   8.181
    2        2.050   5.844   0.287   8.181
    3        0.464   0.434   6.583   7.482
    4        0.464   0.434   6.583   7.482
    5        0.758   1.227   0.000   1.986
    6        0.758   1.227   0.000   1.986
    7        1.003   1.477   0.000   2.481
    8        1.003   1.477   0.000   2.481
tot          8.550  17.967  13.740  40.257